\Generated by Cardinal Operations

Maximize
   1484.6 x_CB7:40_f + 450.8 x_CB7:40_l + 886.96 x_CB10:45_f 
   + 263.88 x_CB10:45_l + 1464.07 x_AB11:20_f + 441.88 x_AB11:20_l 
   + 883.77 x_CB12:35_f + 299.39 x_CB12:35_l + 1467.29 x_AB12:40_f 
   + 505.8 x_AB12:40_l + 856.66 x_AB12:55_f + 279.25 x_AB12:55_l 
   + 1477.78 x_AB13:55_f + 464.67 x_AB13:55_l + 1510.9 x_CB14:15_f 
   + 496.51 x_CB14:15_l + 852.25 x_AB16:05_f + 275.1 x_AB16:05_l 
   + 1583 x_CB16:55_f + 558.48 x_CB16:55_l + 1475.07 x_AB17:05_f 
   + 461.18 x_AB17:05_l + 872.1799999999999 x_CB17:40_f 
   + 265.62 x_CB17:40_l + 833.23 x_AB18:00_f + 261.39 x_AB18:00_l 
   + 1523 x_CB18:30_f + 443.91 x_CB18:30_l 
Subject To
 capacity_constraint_CB7:40: 1.2 x_CB7:40_f + x_CB7:40_l <= 187
 balance_constraint_CB7:40: 1.72 x_CB7:40_0 + 0.97 x_CB7:40_f 
   + 0.97 x_CB7:40_l <= 26.89
 M_constraint_CB7:40_0: - 10000 y_CB7:40 + x_CB7:40_0 <= 0
 M_constraint_CB7:40_f: - 10000 y_CB7:40 + x_CB7:40_f <= 0
 M_constraint_CB7:40_l: - 10000 y_CB7:40 + x_CB7:40_l <= 0
 scale_constraint_CB7:40_f: 2.16 x_CB7:40_0 - 1.2 x_CB7:40_f >= 0
 scale_constraint_CB7:40_l: 1.127 x_CB7:40_0 - 1.2 x_CB7:40_l >= 0
 capacity_constraint_CB10:45: 1.2 x_CB10:45_f + x_CB10:45_l <= 187
 balance_constraint_CB10:45: 1.72 x_CB10:45_0 + 0.97 x_CB10:45_f 
   + 0.97 x_CB10:45_l <= 143.36
 M_constraint_CB10:45_0: - 10000 y_CB10:45 + x_CB10:45_0 <= 0
 M_constraint_CB10:45_f: - 10000 y_CB10:45 + x_CB10:45_f <= 0
 M_constraint_CB10:45_l: - 10000 y_CB10:45 + x_CB10:45_l <= 0
 scale_constraint_CB10:45_f: 1.916 x_CB10:45_0 - 1.2 x_CB10:45_f >= 0
 scale_constraint_CB10:45_l: x_CB10:45_0 - 1.2 x_CB10:45_l >= 0
 capacity_constraint_AB11:20: 1.2 x_AB11:20_f + x_AB11:20_l <= 187
 balance_constraint_AB11:20: 4.92 x_AB11:20_0 + 0.72 x_AB11:20_f 
   + 0.72 x_AB11:20_l <= 179.35
 M_constraint_AB11:20_0: - 10000 y_AB11:20 + x_AB11:20_0 <= 0
 M_constraint_AB11:20_f: - 10000 y_AB11:20 + x_AB11:20_f <= 0
 M_constraint_AB11:20_l: - 10000 y_AB11:20 + x_AB11:20_l <= 0
 scale_constraint_AB11:20_f: 2.05 x_AB11:20_0 - 0.9 x_AB11:20_f >= 0
 scale_constraint_AB11:20_l: x_AB11:20_0 - 0.9 x_AB11:20_l >= 0
 capacity_constraint_CB12:35: 1.2 x_CB12:35_f + x_CB12:35_l <= 187
 balance_constraint_CB12:35: 1.72 x_CB12:35_0 + 0.97 x_CB12:35_f 
   + 0.97 x_CB12:35_l <= 176.5
 M_constraint_CB12:35_0: - 10000 y_CB12:35 + x_CB12:35_0 <= 0
 M_constraint_CB12:35_f: - 10000 y_CB12:35 + x_CB12:35_f <= 0
 M_constraint_CB12:35_l: - 10000 y_CB12:35 + x_CB12:35_l <= 0
 scale_constraint_CB12:35_f: 2.826 x_CB12:35_0 - 1.2 x_CB12:35_f >= 0
 scale_constraint_CB12:35_l: 1.475 x_CB12:35_0 - 1.2 x_CB12:35_l >= 0
 capacity_constraint_AB12:40: 1.2 x_AB12:40_f + x_AB12:40_l <= 187
 balance_constraint_AB12:40: 4.92 x_AB12:40_0 + 0.72 x_AB12:40_f 
   + 0.72 x_AB12:40_l <= 112.36
 M_constraint_AB12:40_0: - 10000 y_AB12:40 + x_AB12:40_0 <= 0
 M_constraint_AB12:40_f: - 10000 y_AB12:40 + x_AB12:40_f <= 0
 M_constraint_AB12:40_l: - 10000 y_AB12:40 + x_AB12:40_l <= 0
 scale_constraint_AB12:40_f: 2.803 x_AB12:40_0 - 0.9 x_AB12:40_f >= 0
 scale_constraint_AB12:40_l: 1.367 x_AB12:40_0 - 0.9 x_AB12:40_l >= 0
 capacity_constraint_AB12:55: 1.2 x_AB12:55_f + x_AB12:55_l <= 187
 balance_constraint_AB12:55: 4.92 x_AB12:55_0 + 0.72 x_AB12:55_f 
   + 0.72 x_AB12:55_l <= 151.72
 M_constraint_AB12:55_0: - 10000 y_AB12:55 + x_AB12:55_0 <= 0
 M_constraint_AB12:55_f: - 10000 y_AB12:55 + x_AB12:55_f <= 0
 M_constraint_AB12:55_l: - 10000 y_AB12:55 + x_AB12:55_l <= 0
 scale_constraint_AB12:55_f: 2.803 x_AB12:55_0 - 0.9 x_AB12:55_f >= 0
 scale_constraint_AB12:55_l: 1.367 x_AB12:55_0 - 0.9 x_AB12:55_l >= 0
 capacity_constraint_AB13:55: 1.2 x_AB13:55_f + x_AB13:55_l <= 187
 balance_constraint_AB13:55: 4.92 x_AB13:55_0 + 0.72 x_AB13:55_f 
   + 0.72 x_AB13:55_l <= 170.64
 M_constraint_AB13:55_0: - 10000 y_AB13:55 + x_AB13:55_0 <= 0
 M_constraint_AB13:55_f: - 10000 y_AB13:55 + x_AB13:55_f <= 0
 M_constraint_AB13:55_l: - 10000 y_AB13:55 + x_AB13:55_l <= 0
 scale_constraint_AB13:55_f: 2.803 x_AB13:55_0 - 0.9 x_AB13:55_f >= 0
 scale_constraint_AB13:55_l: 1.367 x_AB13:55_0 - 0.9 x_AB13:55_l >= 0
 capacity_constraint_CB14:15: 1.2 x_CB14:15_f + x_CB14:15_l <= 187
 balance_constraint_CB14:15: 1.72 x_CB14:15_0 + 0.97 x_CB14:15_f 
   + 0.97 x_CB14:15_l <= 39.64
 M_constraint_CB14:15_0: - 10000 y_CB14:15 + x_CB14:15_0 <= 0
 M_constraint_CB14:15_f: - 10000 y_CB14:15 + x_CB14:15_f <= 0
 M_constraint_CB14:15_l: - 10000 y_CB14:15 + x_CB14:15_l <= 0
 scale_constraint_CB14:15_f: 2.826 x_CB14:15_0 - 1.2 x_CB14:15_f >= 0
 scale_constraint_CB14:15_l: 1.475 x_CB14:15_0 - 1.2 x_CB14:15_l >= 0
 capacity_constraint_AB16:05: 1.2 x_AB16:05_f + x_AB16:05_l <= 187
 balance_constraint_AB16:05: 4.92 x_AB16:05_0 + 0.72 x_AB16:05_f 
   + 0.72 x_AB16:05_l <= 193.22
 M_constraint_AB16:05_0: - 10000 y_AB16:05 + x_AB16:05_0 <= 0
 M_constraint_AB16:05_f: - 10000 y_AB16:05 + x_AB16:05_f <= 0
 M_constraint_AB16:05_l: - 10000 y_AB16:05 + x_AB16:05_l <= 0
 scale_constraint_AB16:05_f: 2.803 x_AB16:05_0 - 0.9 x_AB16:05_f >= 0
 scale_constraint_AB16:05_l: 1.367 x_AB16:05_0 - 0.9 x_AB16:05_l >= 0
 capacity_constraint_CB16:55: 1.2 x_CB16:55_f + x_CB16:55_l <= 187
 balance_constraint_CB16:55: 1.72 x_CB16:55_0 + 0.97 x_CB16:55_f 
   + 0.97 x_CB16:55_l <= 4.4
 M_constraint_CB16:55_0: - 10000 y_CB16:55 + x_CB16:55_0 <= 0
 M_constraint_CB16:55_f: - 10000 y_CB16:55 + x_CB16:55_f <= 0
 M_constraint_CB16:55_l: - 10000 y_CB16:55 + x_CB16:55_l <= 0
 scale_constraint_CB16:55_f: 2.826 x_CB16:55_0 - 1.2 x_CB16:55_f >= 0
 scale_constraint_CB16:55_l: 1.475 x_CB16:55_0 - 1.2 x_CB16:55_l >= 0
 capacity_constraint_AB17:05: 1.2 x_AB17:05_f + x_AB17:05_l <= 187
 balance_constraint_AB17:05: 4.92 x_AB17:05_0 + 0.72 x_AB17:05_f 
   + 0.72 x_AB17:05_l <= 179.5
 M_constraint_AB17:05_0: - 10000 y_AB17:05 + x_AB17:05_0 <= 0
 M_constraint_AB17:05_f: - 10000 y_AB17:05 + x_AB17:05_f <= 0
 M_constraint_AB17:05_l: - 10000 y_AB17:05 + x_AB17:05_l <= 0
 scale_constraint_AB17:05_f: 2.803 x_AB17:05_0 - 0.9 x_AB17:05_f >= 0
 scale_constraint_AB17:05_l: 1.367 x_AB17:05_0 - 0.9 x_AB17:05_l >= 0
 capacity_constraint_CB17:40: 1.2 x_CB17:40_f + x_CB17:40_l <= 187
 balance_constraint_CB17:40: 1.72 x_CB17:40_0 + 0.97 x_CB17:40_f 
   + 0.97 x_CB17:40_l <= 141.07
 M_constraint_CB17:40_0: - 10000 y_CB17:40 + x_CB17:40_0 <= 0
 M_constraint_CB17:40_f: - 10000 y_CB17:40 + x_CB17:40_f <= 0
 M_constraint_CB17:40_l: - 10000 y_CB17:40 + x_CB17:40_l <= 0
 scale_constraint_CB17:40_f: 2.826 x_CB17:40_0 - 1.2 x_CB17:40_f >= 0
 scale_constraint_CB17:40_l: 1.475 x_CB17:40_0 - 1.2 x_CB17:40_l >= 0
 capacity_constraint_AB18:00: 1.2 x_AB18:00_f + x_AB18:00_l <= 187
 balance_constraint_AB18:00: 4.92 x_AB18:00_0 + 0.72 x_AB18:00_f 
   + 0.72 x_AB18:00_l <= 117.78
 M_constraint_AB18:00_0: - 10000 y_AB18:00 + x_AB18:00_0 <= 0
 M_constraint_AB18:00_f: - 10000 y_AB18:00 + x_AB18:00_f <= 0
 M_constraint_AB18:00_l: - 10000 y_AB18:00 + x_AB18:00_l <= 0
 scale_constraint_AB18:00_f: 1.624 x_AB18:00_0 - 0.9 x_AB18:00_f >= 0
 scale_constraint_AB18:00_l: 0.793 x_AB18:00_0 - 0.9 x_AB18:00_l >= 0
 capacity_constraint_CB18:30: 1.2 x_CB18:30_f + x_CB18:30_l <= 187
 balance_constraint_CB18:30: 1.72 x_CB18:30_0 + 0.97 x_CB18:30_f 
   + 0.97 x_CB18:30_l <= 16.95
 M_constraint_CB18:30_0: - 10000 y_CB18:30 + x_CB18:30_0 <= 0
 M_constraint_CB18:30_f: - 10000 y_CB18:30 + x_CB18:30_f <= 0
 M_constraint_CB18:30_l: - 10000 y_CB18:30 + x_CB18:30_l <= 0
 scale_constraint_CB18:30_f: 3.126 x_CB18:30_0 - 1.2 x_CB18:30_f >= 0
 scale_constraint_CB18:30_l: 1.631 x_CB18:30_0 - 1.2 x_CB18:30_l >= 0
 cardinality_constraint: y_CB7:40 + y_CB10:45 + y_AB11:20 + y_CB12:35 
   + y_AB12:40 + y_AB12:55 + y_AB13:55 + y_CB14:15 + y_AB16:05 + y_CB16:55 
   + y_AB17:05 + y_CB17:40 + y_AB18:00 + y_CB18:30 <= 4
Binaries
 y_CB7:40  y_CB10:45  y_AB11:20  y_CB12:35  y_AB12:40  y_AB12:55  
 y_AB13:55  y_CB14:15  y_AB16:05  y_CB16:55  y_AB17:05  y_CB17:40  
 y_AB18:00  y_CB18:30  
END

